lab5/part1/multiplier/multiplier/model/design_smt2.smt2
; SMT-LIBv2 description generated by Yosys 0.25+1 (git sha1 d3216593d, clang 10.0.0-4ubuntu1 -fPIC -Os)
; yosys-smt2-module multiplier
(declare-sort |multiplier_s| 0)
(declare-fun |multiplier_is| (|multiplier_s|) Bool)
(declare-fun |multiplier#0| (|multiplier_s|) (_ BitVec 8)) ; \a_i
(declare-fun |multiplier#1| (|multiplier_s|) (_ BitVec 8)) ; \b_i
(define-fun |multiplier#2| ((state |multiplier_s|)) (_ BitVec 16) (bvmul (concat #b00000000 (|multiplier#0| state)) (concat #b00000000 (|multiplier#1| state)))) ; \prod_o
; yosys-smt2-output prod_o 16
; yosys-smt2-wire prod_o 16
(define-fun |multiplier_n prod_o| ((state |multiplier_s|)) (_ BitVec 16) (|multiplier#2| state))
; yosys-smt2-input b_i 8
; yosys-smt2-wire b_i 8
; yosys-smt2-witness {"offset": 0, "path": ["\\b_i"], "smtname": "b_i", "smtoffset": 0, "type": "input", "width": 8}
(define-fun |multiplier_n b_i| ((state |multiplier_s|)) (_ BitVec 8) (|multiplier#1| state))
; yosys-smt2-input a_i 8
; yosys-smt2-wire a_i 8
; yosys-smt2-witness {"offset": 0, "path": ["\\a_i"], "smtname": "a_i", "smtoffset": 0, "type": "input", "width": 8}
(define-fun |multiplier_n a_i| ((state |multiplier_s|)) (_ BitVec 8) (|multiplier#0| state))
; yosys-smt2-assert 0 $assert$multiplier.sv:7$4 multiplier.sv:7.32-29.44
(define-fun |multiplier_a 0| ((state |multiplier_s|)) Bool (or true (not true))) ; $assert$multiplier.sv:7$4
(define-fun |multiplier#3| ((state |multiplier_s|)) (_ BitVec 1) (bvnot ((_ extract 15 15) (|multiplier#2| state)))) ; $eq$multiplier.sv:30$5_Y
; yosys-smt2-assert 1 $assert$multiplier.sv:29$6 multiplier.sv:29.45-30.54
(define-fun |multiplier_a 1| ((state |multiplier_s|)) Bool (or (= ((_ extract 0 0) (|multiplier#3| state)) #b1) (not true))) ; $assert$multiplier.sv:29$6
(define-fun |multiplier_a| ((state |multiplier_s|)) Bool (and
  (|multiplier_a 0| state)
  (|multiplier_a 1| state)
))
(define-fun |multiplier_u| ((state |multiplier_s|)) Bool true)
(define-fun |multiplier_i| ((state |multiplier_s|)) Bool true)
(define-fun |multiplier_h| ((state |multiplier_s|)) Bool true)
(define-fun |multiplier_t| ((state |multiplier_s|) (next_state |multiplier_s|)) Bool true) ; end of module multiplier
; yosys-smt2-topmod multiplier
; end of yosys output
